(set-info :smt-lib-version 2.6)
(set-info :category "crafted")
(set-logic QF_FFA)
(define-sort FF0 () (_ FiniteField 52435875175126190479447740508185965837690552500527637822603658699938581184513))
(declare-fun return_n0_alt () FF0)
(declare-fun mul_n11_alt () FF0)
(declare-fun mul_n57_alt () FF0)
(declare-fun h_n7_alt () FF0)
(declare-fun f_n1_alt () FF0)
(declare-fun mul_n12_alt () FF0)
(declare-fun mul_n56_alt () FF0)
(declare-fun mul_n35_alt () FF0)
(declare-fun mul_n55_alt () FF0)
(declare-fun mul_n36_alt () FF0)
(declare-fun mul_n54_alt () FF0)
(declare-fun a_n10_alt () FF0)
(declare-fun mul_n53_alt () FF0)
(declare-fun mul_n44_alt () FF0)
(declare-fun mul_n52_alt () FF0)
(declare-fun j_n3_alt () FF0)
(declare-fun mul_n51_alt () FF0)
(declare-fun d_n4_alt () FF0)
(declare-fun mul_n50_alt () FF0)
(declare-fun mul_n49_alt () FF0)
(declare-fun e_n2_alt () FF0)
(declare-fun mul_n48_alt () FF0)
(declare-fun mul_n47_alt () FF0)
(declare-fun i_n5_alt () FF0)
(declare-fun mul_n46_alt () FF0)
(declare-fun mul_n45_alt () FF0)
(declare-fun b_n8_alt () FF0)
(declare-fun mul_n30_alt () FF0)
(declare-fun mul_n37_alt () FF0)
(declare-fun mul_n43_alt () FF0)
(declare-fun mul_n42_alt () FF0)
(declare-fun mul_n41_alt () FF0)
(declare-fun mul_n33_alt () FF0)
(declare-fun mul_n40_alt () FF0)
(declare-fun mul_n39_alt () FF0)
(declare-fun mul_n38_alt () FF0)
(declare-fun g_n9_alt () FF0)
(declare-fun mul_n34_alt () FF0)
(declare-fun mul_n32_alt () FF0)
(declare-fun mul_n31_alt () FF0)
(declare-fun c_n6_alt () FF0)
(declare-fun mul_n29_alt () FF0)
(declare-fun mul_n28_alt () FF0)
(declare-fun mul_n27_alt () FF0)
(declare-fun mul_n26_alt () FF0)
(declare-fun mul_n25_alt () FF0)
(declare-fun mul_n24_alt () FF0)
(declare-fun mul_n23_alt () FF0)
(declare-fun mul_n22_alt () FF0)
(declare-fun mul_n21_alt () FF0)
(declare-fun mul_n20_alt () FF0)
(declare-fun mul_n19_alt () FF0)
(declare-fun mul_n18_alt () FF0)
(declare-fun mul_n17_alt () FF0)
(declare-fun mul_n16_alt () FF0)
(declare-fun mul_n15_alt () FF0)
(declare-fun mul_n14_alt () FF0)
(declare-fun mul_n13_alt () FF0)
(declare-fun return_n0 () FF0)
(declare-fun mul_n11 () FF0)
(declare-fun mul_n57 () FF0)
(declare-fun h_n7 () FF0)
(declare-fun f_n1 () FF0)
(declare-fun mul_n12 () FF0)
(declare-fun mul_n56 () FF0)
(declare-fun mul_n35 () FF0)
(declare-fun mul_n55 () FF0)
(declare-fun mul_n36 () FF0)
(declare-fun mul_n54 () FF0)
(declare-fun a_n10 () FF0)
(declare-fun mul_n53 () FF0)
(declare-fun mul_n44 () FF0)
(declare-fun mul_n52 () FF0)
(declare-fun j_n3 () FF0)
(declare-fun mul_n51 () FF0)
(declare-fun d_n4 () FF0)
(declare-fun mul_n50 () FF0)
(declare-fun mul_n49 () FF0)
(declare-fun e_n2 () FF0)
(declare-fun mul_n48 () FF0)
(declare-fun mul_n47 () FF0)
(declare-fun i_n5 () FF0)
(declare-fun mul_n46 () FF0)
(declare-fun mul_n45 () FF0)
(declare-fun b_n8 () FF0)
(declare-fun mul_n30 () FF0)
(declare-fun mul_n37 () FF0)
(declare-fun mul_n43 () FF0)
(declare-fun mul_n42 () FF0)
(declare-fun mul_n41 () FF0)
(declare-fun mul_n33 () FF0)
(declare-fun mul_n40 () FF0)
(declare-fun mul_n39 () FF0)
(declare-fun mul_n38 () FF0)
(declare-fun g_n9 () FF0)
(declare-fun mul_n34 () FF0)
(declare-fun mul_n32 () FF0)
(declare-fun mul_n31 () FF0)
(declare-fun c_n6 () FF0)
(declare-fun mul_n29 () FF0)
(declare-fun mul_n28 () FF0)
(declare-fun mul_n27 () FF0)
(declare-fun mul_n26 () FF0)
(declare-fun mul_n25 () FF0)
(declare-fun mul_n24 () FF0)
(declare-fun mul_n23 () FF0)
(declare-fun mul_n22 () FF0)
(declare-fun mul_n21 () FF0)
(declare-fun mul_n20 () FF0)
(declare-fun mul_n19 () FF0)
(declare-fun mul_n18 () FF0)
(declare-fun mul_n17 () FF0)
(declare-fun mul_n16 () FF0)
(declare-fun mul_n15 () FF0)
(declare-fun mul_n14 () FF0)
(declare-fun mul_n13 () FF0)
(assert 
  (let ((let0 (as ff1 FF0)))
  (let ((let1 (as ff52435875175126190479447740508185965837690552500527637822603658699938581184512 FF0)))
  (let ((let2 return_n0_alt))
  (let ((let3 (ff.mul let2 let1)))
  (let ((let4 (ff.add let3 let0)))
  (let ((let5 mul_n11_alt))
  (let ((let6 (ff.mul let5 let1)))
  (let ((let7 (ff.add let6 let0)))
  (let ((let8 mul_n57_alt))
  (let ((let9 (ff.mul let8 let7)))
  (let ((let10 (= let9 let4)))
  (let ((let11 h_n7_alt))
  (let ((let12 f_n1_alt))
  (let ((let13 mul_n12_alt))
  (let ((let14 (ff.mul let13 let1)))
  (let ((let15 (ff.add let14 let12 let11)))
  (let ((let16 mul_n56_alt))
  (let ((let17 (ff.mul let16 let15)))
  (let ((let18 (= let17 let8)))
  (let ((let19 mul_n35_alt))
  (let ((let20 mul_n55_alt))
  (let ((let21 (ff.mul let20 let19)))
  (let ((let22 (= let21 let16)))
  (let ((let23 mul_n36_alt))
  (let ((let24 mul_n54_alt))
  (let ((let25 (ff.mul let24 let23)))
  (let ((let26 (= let25 let20)))
  (let ((let27 a_n10_alt))
  (let ((let28 mul_n53_alt))
  (let ((let29 (ff.mul let28 let27)))
  (let ((let30 (= let29 let24)))
  (let ((let31 mul_n44_alt))
  (let ((let32 (ff.mul let31 let1)))
  (let ((let33 (ff.add let32 let0)))
  (let ((let34 mul_n52_alt))
  (let ((let35 (ff.mul let34 let1)))
  (let ((let36 (ff.add let35 let0)))
  (let ((let37 (ff.mul let36 let33)))
  (let ((let38 (= let37 let28)))
  (let ((let39 j_n3_alt))
  (let ((let40 mul_n51_alt))
  (let ((let41 (ff.mul let40 let39)))
  (let ((let42 (= let41 let34)))
  (let ((let43 d_n4_alt))
  (let ((let44 mul_n50_alt))
  (let ((let45 (ff.mul let44 let43)))
  (let ((let46 (= let45 let40)))
  (let ((let47 mul_n49_alt))
  (let ((let48 (ff.mul let47 let12)))
  (let ((let49 (= let48 let44)))
  (let ((let50 e_n2_alt))
  (let ((let51 mul_n48_alt))
  (let ((let52 (ff.mul let51 let50)))
  (let ((let53 (= let52 let47)))
  (let ((let54 mul_n47_alt))
  (let ((let55 (ff.mul let54 let39)))
  (let ((let56 (= let55 let51)))
  (let ((let57 i_n5_alt))
  (let ((let58 mul_n46_alt))
  (let ((let59 (ff.mul let58 let57)))
  (let ((let60 (= let59 let54)))
  (let ((let61 mul_n45_alt))
  (let ((let62 (ff.mul let61 let11)))
  (let ((let63 (= let62 let58)))
  (let ((let64 b_n8_alt))
  (let ((let65 mul_n30_alt))
  (let ((let66 (ff.mul let65 let1)))
  (let ((let67 (ff.add let66 let0)))
  (let ((let68 (ff.mul let67 let64)))
  (let ((let69 (= let68 let61)))
  (let ((let70 (ff.mul let11 let1)))
  (let ((let71 mul_n37_alt))
  (let ((let72 (ff.add let71 let65 let70)))
  (let ((let73 mul_n43_alt))
  (let ((let74 (ff.mul let73 let72)))
  (let ((let75 (= let74 let31)))
  (let ((let76 mul_n42_alt))
  (let ((let77 (ff.mul let76 let72)))
  (let ((let78 (= let77 let73)))
  (let ((let79 mul_n41_alt))
  (let ((let80 (ff.mul let79 let50)))
  (let ((let81 (= let80 let76)))
  (let ((let82 mul_n33_alt))
  (let ((let83 mul_n40_alt))
  (let ((let84 (ff.mul let83 let82)))
  (let ((let85 (= let84 let79)))
  (let ((let86 mul_n39_alt))
  (let ((let87 (ff.mul let86 let27)))
  (let ((let88 (= let87 let83)))
  (let ((let89 mul_n38_alt))
  (let ((let90 (ff.mul let89 let12)))
  (let ((let91 (= let90 let86)))
  (let ((let92 g_n9_alt))
  (let ((let93 (ff.mul let92 let12)))
  (let ((let94 (= let93 let89)))
  (let ((let95 (as ff2 FF0)))
  (let ((let96 (ff.mul let11 let95)))
  (let ((let97 (ff.mul let96 let67)))
  (let ((let98 (= let97 let71)))
  (let ((let99 (ff.mul let57 let64)))
  (let ((let100 (= let99 let23)))
  (let ((let101 (ff.mul let82 let1)))
  (let ((let102 (ff.add let101 let0)))
  (let ((let103 mul_n34_alt))
  (let ((let104 (ff.add let82 let103)))
  (let ((let105 (ff.mul let104 let102)))
  (let ((let106 (= let105 let19)))
  (let ((let107 mul_n32_alt))
  (let ((let108 (ff.mul let107 let92)))
  (let ((let109 (= let108 let82)))
  (let ((let110 mul_n31_alt))
  (let ((let111 (ff.mul let110 let1)))
  (let ((let112 (ff.add let111 let0)))
  (let ((let113 (ff.mul let112 let112)))
  (let ((let114 (= let113 let107)))
  (let ((let115 (ff.mul let43 let1)))
  (let ((let116 (ff.add let115 let0)))
  (let ((let117 (ff.mul let65 let116)))
  (let ((let118 (= let117 let110)))
  (let ((let119 c_n6_alt))
  (let ((let120 (ff.mul let119 let1)))
  (let ((let121 (ff.add let120 let0)))
  (let ((let122 mul_n29_alt))
  (let ((let123 (ff.mul let122 let121)))
  (let ((let124 (= let123 let65)))
  (let ((let125 (ff.mul let27 let1)))
  (let ((let126 (ff.add let125 let0)))
  (let ((let127 mul_n28_alt))
  (let ((let128 (ff.mul let127 let126)))
  (let ((let129 (= let128 let122)))
  (let ((let130 (ff.mul let57 let1)))
  (let ((let131 (ff.add let130 let0)))
  (let ((let132 mul_n27_alt))
  (let ((let133 (ff.mul let132 let131)))
  (let ((let134 (= let133 let127)))
  (let ((let135 (ff.mul let50 let1)))
  (let ((let136 (ff.add let135 let0)))
  (let ((let137 mul_n26_alt))
  (let ((let138 (ff.mul let137 let136)))
  (let ((let139 (= let138 let132)))
  (let ((let140 (ff.mul let12 let1)))
  (let ((let141 (ff.add let140 let0)))
  (let ((let142 mul_n25_alt))
  (let ((let143 (ff.mul let142 let141)))
  (let ((let144 (= let143 let137)))
  (let ((let145 (ff.mul let64 let1)))
  (let ((let146 (ff.add let145 let0)))
  (let ((let147 mul_n24_alt))
  (let ((let148 (ff.mul let147 let146)))
  (let ((let149 (= let148 let142)))
  (let ((let150 mul_n23_alt))
  (let ((let151 (ff.mul let150 let116)))
  (let ((let152 (= let151 let147)))
  (let ((let153 (ff.mul let92 let1)))
  (let ((let154 (ff.add let153 let0)))
  (let ((let155 mul_n22_alt))
  (let ((let156 (ff.mul let155 let154)))
  (let ((let157 (= let156 let150)))
  (let ((let158 mul_n21_alt))
  (let ((let159 (ff.mul let158 let126)))
  (let ((let160 (= let159 let155)))
  (let ((let161 mul_n20_alt))
  (let ((let162 (ff.mul let161 let121)))
  (let ((let163 (= let162 let158)))
  (let ((let164 mul_n19_alt))
  (let ((let165 (ff.mul let164 let154)))
  (let ((let166 (= let165 let161)))
  (let ((let167 mul_n18_alt))
  (let ((let168 (ff.mul let167 let136)))
  (let ((let169 (= let168 let164)))
  (let ((let170 (ff.mul let39 let1)))
  (let ((let171 (ff.add let170 let0)))
  (let ((let172 mul_n17_alt))
  (let ((let173 (ff.mul let172 let171)))
  (let ((let174 (= let173 let167)))
  (let ((let175 mul_n16_alt))
  (let ((let176 (ff.mul let175 let121)))
  (let ((let177 (= let176 let172)))
  (let ((let178 (ff.add let70 let0)))
  (let ((let179 mul_n15_alt))
  (let ((let180 (ff.mul let179 let178)))
  (let ((let181 (= let180 let175)))
  (let ((let182 mul_n14_alt))
  (let ((let183 (ff.mul let182 let116)))
  (let ((let184 (= let183 let179)))
  (let ((let185 mul_n13_alt))
  (let ((let186 (ff.mul let185 let131)))
  (let ((let187 (= let186 let182)))
  (let ((let188 (ff.mul let146 let126)))
  (let ((let189 (= let188 let185)))
  (let ((let190 (ff.mul let96 let12)))
  (let ((let191 (= let190 let13)))
  (let ((let192 (ff.mul let43 let39)))
  (let ((let193 (= let192 let5)))
  (let ((let194 (and let193 let191 let189 let187 let184 let181 let177 let174 let169 let166 let163 let160 let157 let152 let149 let144 let139 let134 let129 let124 let118 let114 let109 let106 let100 let98 let94 let91 let88 let85 let81 let78 let75 let69 let63 let60 let56 let53 let49 let46 let42 let38 let30 let26 let22 let18 let10)))
  (let ((let195 return_n0))
  (let ((let196 (ff.mul let195 let1)))
  (let ((let197 (ff.add let196 let0)))
  (let ((let198 mul_n11))
  (let ((let199 (ff.mul let198 let1)))
  (let ((let200 (ff.add let199 let0)))
  (let ((let201 mul_n57))
  (let ((let202 (ff.mul let201 let200)))
  (let ((let203 (= let202 let197)))
  (let ((let204 h_n7))
  (let ((let205 f_n1))
  (let ((let206 mul_n12))
  (let ((let207 (ff.mul let206 let1)))
  (let ((let208 (ff.add let207 let205 let204)))
  (let ((let209 mul_n56))
  (let ((let210 (ff.mul let209 let208)))
  (let ((let211 (= let210 let201)))
  (let ((let212 mul_n35))
  (let ((let213 mul_n55))
  (let ((let214 (ff.mul let213 let212)))
  (let ((let215 (= let214 let209)))
  (let ((let216 mul_n36))
  (let ((let217 mul_n54))
  (let ((let218 (ff.mul let217 let216)))
  (let ((let219 (= let218 let213)))
  (let ((let220 a_n10))
  (let ((let221 mul_n53))
  (let ((let222 (ff.mul let221 let220)))
  (let ((let223 (= let222 let217)))
  (let ((let224 mul_n44))
  (let ((let225 (ff.mul let224 let1)))
  (let ((let226 (ff.add let225 let0)))
  (let ((let227 mul_n52))
  (let ((let228 (ff.mul let227 let1)))
  (let ((let229 (ff.add let228 let0)))
  (let ((let230 (ff.mul let229 let226)))
  (let ((let231 (= let230 let221)))
  (let ((let232 j_n3))
  (let ((let233 mul_n51))
  (let ((let234 (ff.mul let233 let232)))
  (let ((let235 (= let234 let227)))
  (let ((let236 d_n4))
  (let ((let237 mul_n50))
  (let ((let238 (ff.mul let237 let236)))
  (let ((let239 (= let238 let233)))
  (let ((let240 mul_n49))
  (let ((let241 (ff.mul let240 let205)))
  (let ((let242 (= let241 let237)))
  (let ((let243 e_n2))
  (let ((let244 mul_n48))
  (let ((let245 (ff.mul let244 let243)))
  (let ((let246 (= let245 let240)))
  (let ((let247 mul_n47))
  (let ((let248 (ff.mul let247 let232)))
  (let ((let249 (= let248 let244)))
  (let ((let250 i_n5))
  (let ((let251 mul_n46))
  (let ((let252 (ff.mul let251 let250)))
  (let ((let253 (= let252 let247)))
  (let ((let254 mul_n45))
  (let ((let255 (ff.mul let254 let204)))
  (let ((let256 (= let255 let251)))
  (let ((let257 b_n8))
  (let ((let258 mul_n30))
  (let ((let259 (ff.mul let258 let1)))
  (let ((let260 (ff.add let259 let0)))
  (let ((let261 (ff.mul let260 let257)))
  (let ((let262 (= let261 let254)))
  (let ((let263 (ff.mul let204 let1)))
  (let ((let264 mul_n37))
  (let ((let265 (ff.add let264 let258 let263)))
  (let ((let266 mul_n43))
  (let ((let267 (ff.mul let266 let265)))
  (let ((let268 (= let267 let224)))
  (let ((let269 mul_n42))
  (let ((let270 (ff.mul let269 let265)))
  (let ((let271 (= let270 let266)))
  (let ((let272 mul_n41))
  (let ((let273 (ff.mul let272 let243)))
  (let ((let274 (= let273 let269)))
  (let ((let275 mul_n33))
  (let ((let276 mul_n40))
  (let ((let277 (ff.mul let276 let275)))
  (let ((let278 (= let277 let272)))
  (let ((let279 mul_n39))
  (let ((let280 (ff.mul let279 let220)))
  (let ((let281 (= let280 let276)))
  (let ((let282 mul_n38))
  (let ((let283 (ff.mul let282 let205)))
  (let ((let284 (= let283 let279)))
  (let ((let285 g_n9))
  (let ((let286 (ff.mul let285 let205)))
  (let ((let287 (= let286 let282)))
  (let ((let288 (ff.mul let204 let95)))
  (let ((let289 (ff.mul let288 let260)))
  (let ((let290 (= let289 let264)))
  (let ((let291 (ff.mul let250 let257)))
  (let ((let292 (= let291 let216)))
  (let ((let293 (ff.mul let275 let1)))
  (let ((let294 (ff.add let293 let0)))
  (let ((let295 mul_n34))
  (let ((let296 (ff.add let275 let295)))
  (let ((let297 (ff.mul let296 let294)))
  (let ((let298 (= let297 let212)))
  (let ((let299 mul_n32))
  (let ((let300 (ff.mul let299 let285)))
  (let ((let301 (= let300 let275)))
  (let ((let302 mul_n31))
  (let ((let303 (ff.mul let302 let1)))
  (let ((let304 (ff.add let303 let0)))
  (let ((let305 (ff.mul let304 let304)))
  (let ((let306 (= let305 let299)))
  (let ((let307 (ff.mul let236 let1)))
  (let ((let308 (ff.add let307 let0)))
  (let ((let309 (ff.mul let258 let308)))
  (let ((let310 (= let309 let302)))
  (let ((let311 c_n6))
  (let ((let312 (ff.mul let311 let1)))
  (let ((let313 (ff.add let312 let0)))
  (let ((let314 mul_n29))
  (let ((let315 (ff.mul let314 let313)))
  (let ((let316 (= let315 let258)))
  (let ((let317 (ff.mul let220 let1)))
  (let ((let318 (ff.add let317 let0)))
  (let ((let319 mul_n28))
  (let ((let320 (ff.mul let319 let318)))
  (let ((let321 (= let320 let314)))
  (let ((let322 (ff.mul let250 let1)))
  (let ((let323 (ff.add let322 let0)))
  (let ((let324 mul_n27))
  (let ((let325 (ff.mul let324 let323)))
  (let ((let326 (= let325 let319)))
  (let ((let327 (ff.mul let243 let1)))
  (let ((let328 (ff.add let327 let0)))
  (let ((let329 mul_n26))
  (let ((let330 (ff.mul let329 let328)))
  (let ((let331 (= let330 let324)))
  (let ((let332 (ff.mul let205 let1)))
  (let ((let333 (ff.add let332 let0)))
  (let ((let334 mul_n25))
  (let ((let335 (ff.mul let334 let333)))
  (let ((let336 (= let335 let329)))
  (let ((let337 (ff.mul let257 let1)))
  (let ((let338 (ff.add let337 let0)))
  (let ((let339 mul_n24))
  (let ((let340 (ff.mul let339 let338)))
  (let ((let341 (= let340 let334)))
  (let ((let342 mul_n23))
  (let ((let343 (ff.mul let342 let308)))
  (let ((let344 (= let343 let339)))
  (let ((let345 (ff.mul let285 let1)))
  (let ((let346 (ff.add let345 let0)))
  (let ((let347 mul_n22))
  (let ((let348 (ff.mul let347 let346)))
  (let ((let349 (= let348 let342)))
  (let ((let350 mul_n21))
  (let ((let351 (ff.mul let350 let318)))
  (let ((let352 (= let351 let347)))
  (let ((let353 mul_n20))
  (let ((let354 (ff.mul let353 let313)))
  (let ((let355 (= let354 let350)))
  (let ((let356 mul_n19))
  (let ((let357 (ff.mul let356 let346)))
  (let ((let358 (= let357 let353)))
  (let ((let359 mul_n18))
  (let ((let360 (ff.mul let359 let328)))
  (let ((let361 (= let360 let356)))
  (let ((let362 (ff.mul let232 let1)))
  (let ((let363 (ff.add let362 let0)))
  (let ((let364 mul_n17))
  (let ((let365 (ff.mul let364 let363)))
  (let ((let366 (= let365 let359)))
  (let ((let367 mul_n16))
  (let ((let368 (ff.mul let367 let313)))
  (let ((let369 (= let368 let364)))
  (let ((let370 (ff.add let263 let0)))
  (let ((let371 mul_n15))
  (let ((let372 (ff.mul let371 let370)))
  (let ((let373 (= let372 let367)))
  (let ((let374 mul_n14))
  (let ((let375 (ff.mul let374 let308)))
  (let ((let376 (= let375 let371)))
  (let ((let377 mul_n13))
  (let ((let378 (ff.mul let377 let323)))
  (let ((let379 (= let378 let374)))
  (let ((let380 (ff.mul let338 let318)))
  (let ((let381 (= let380 let377)))
  (let ((let382 (ff.mul let288 let205)))
  (let ((let383 (= let382 let206)))
  (let ((let384 (ff.mul let236 let232)))
  (let ((let385 (= let384 let198)))
  (let ((let386 (and let385 let383 let381 let379 let376 let373 let369 let366 let361 let358 let355 let352 let349 let344 let341 let336 let331 let326 let321 let316 let310 let306 let301 let298 let292 let290 let287 let284 let281 let278 let274 let271 let268 let262 let256 let253 let249 let246 let242 let239 let235 let231 let223 let219 let215 let211 let203)))
  (let ((let387 (= let195 let2)))
  (let ((let388 (not let387)))
  (let ((let389 (= let250 let57)))
  (let ((let390 (= let204 let11)))
  (let ((let391 (= let243 let50)))
  (let ((let392 (= let257 let64)))
  (let ((let393 (= let236 let43)))
  (let ((let394 (= let285 let92)))
  (let ((let395 (= let311 let119)))
  (let ((let396 (= let232 let39)))
  (let ((let397 (= let220 let27)))
  (let ((let398 (= let205 let12)))
  (let ((let399 (and let398 let397 let396 let395 let394 let393 let392 let391 let390 let389)))
  (let ((let400 (and let399 let388 let386 let194)))
  let400
)))))))))))))))))))))))))))))))))))))))))))))))))))))))))))))))))))))))))))))))))))))))))))))))))))))))))))))))))))))))))))))))))))))))))))))))))))))))))))))))))))))))))))))))))))))))))))))))))))))))))))))))))))))))))))))))))))))))))))))))))))))))))))))))))))))))))))))))))))))))))))))))))))))))))))))))))))))))))))))))))))))))))))))))))))))))))))))))))))))))))))))))))))))))))))))))))))))))))))))))))
)
(check-sat)
